Gurobi 12.0.0:   lim:time = 14400

  mip:bestbound = 1

Set parameter LogToConsole to value 1

  tech:outlev = 1

Set parameter Cuts to value 3

  cut:cuts = 3

Set parameter Presolve to value 2

  pre:solve = 2

Set parameter MIPFocus to value 2

  mip:focus = 2

Set parameter Symmetry to value 2

  mip:symmetry = 2

Set parameter InfUnbdInfo to value 1

Gurobi Optimizer version 12.0.0 build v12.0.0rc1 (win64 - Windows 11.0 (26100.2))



CPU model: 11th Gen Intel(R) Core(TM) i7-11700 @ 2.50GHz, instruction set [SSE2|AVX|AVX2|AVX512]

Thread count: 8 physical cores, 16 logical processors, using up to 16 threads



Non-default parameters:

TimeLimit  14400

MIPFocus  2

Symmetry  2

Cuts  3

InfUnbdInfo  1

Presolve  2



Optimize a model with 286 rows, 529 columns and 2873 nonzeros

Model fingerprint: 0xc293dead

Model has 3 quadratic objective terms

Model has 7 quadratic constraints

Variable types: 33 continuous, 496 integer (0 binary)

Coefficient statistics:

  Matrix range     [1e+00, 1e+05]

  QMatrix range    [1e+00, 1e+00]

  QLMatrix range   [1e+00, 1e+01]

  Objective range  [6e+00, 1e+02]

  QObjective range [2e+00, 2e+00]

  Bounds range     [1e+00, 9e+01]

  RHS range        [1e+00, 1e+05]

  QRHS range       [1e+02, 1e+02]

Presolve removed 20 rows and 65 columns

Presolve time: 0.08s

Presolved: 598 rows, 785 columns, 4515 nonzeros

Variable types: 144 continuous, 641 integer (567 binary)

Root relaxation presolve removed 16 rows and 0 columns

Root relaxation presolved: 448 rows, 656 columns, 6105 nonzeros





Root relaxation: objective 2.964559e+01, 67 iterations, 0.01 seconds (0.01 work units)



    Nodes    |    Current Node    |     Objective Bounds      |     Work

 Expl Unexpl |  Obj  Depth IntInf | Incumbent    BestBd   Gap | It/Node Time



     0     0   29.64559    0   27          -   29.64559      -     -    0s

H    0     0                     330.9000000   29.64559  91.0%     -    0s

H    0     0                     184.7600000   46.28295  74.9%     -    0s

     0     0   68.19000    0   36  184.76000   68.19000  63.1%     -    0s

     0     0   68.19000    0   31  184.76000   68.19000  63.1%     -    0s

H    0     0                     172.7100000   68.20913  60.5%     -    0s

     0     0   70.51000    0    7  172.71000   70.51000  59.2%     -    0s

H    0     0                     162.7700000   70.51000  56.7%     -    0s

     0     0   70.72091    0    7  162.77000   70.72091  56.6%     -    0s

     0     0   70.72091    0    7  162.77000   70.72091  56.6%     -    0s

     0     0   70.72091    0   20  162.77000   70.72091  56.6%     -    0s

     0     0   70.72091    0   25  162.77000   70.72091  56.6%     -    0s

     0     0   70.72091    0   34  162.77000   70.72091  56.6%     -    0s

     0     0   72.70814    0   14  162.77000   72.70814  55.3%     -    0s

     0     0   76.71378    0   14  162.77000   76.71378  52.9%     -    0s

H    0     0                     158.6300000   76.71378  51.6%     -    0s

H    0     0                     157.8300000   83.16243  47.3%     -    0s

H    0     0                     149.0100000   88.74568  40.4%     -    0s

H    0     0                     148.7800000   88.74568  40.4%     -    0s

     0     0  124.21215    0   26  148.78000  124.21215  16.5%     -    1s

     0     0  128.68000    0   46  148.78000  128.68000  13.5%     -    1s

     0     0  129.55000    0   45  148.78000  129.55000  12.9%     -    1s

     0     0  148.78000    0   18  148.78000  148.78000  0.00%     -    1s



Cutting planes:

  Learned: 3

  Gomory: 41

  Lift-and-project: 17

  Cover: 1

  Implied bound: 9

  Projected implied bound: 1

  Clique: 2

  StrongCG: 5

  Flow cover: 30

  Zero half: 17

  RLT: 17

  Relax-and-lift: 2



Explored 1 nodes (995 simplex iterations) in 1.14 seconds (0.53 work units)

Thread count was 16 (of 16 available processors)



Solution count 8: 148.78 149.01 157.83 ... 330.9



Optimal solution found (tolerance 1.00e-04)

Best objective 1.487800000000e+02, best bound 1.487800000000e+02, gap 0.0000%

-----RESULTS INFO-----
running_time:  1.453
TC.best_bound:  148.78
TC:  148.78
MIP Gap (%):  0
=== Vehicle Routes ===
Vehicle 1: 0 → 8
Vehicle 1: 1 → 15
Vehicle 1: 8 → 11
Vehicle 1: 11 → 1
Vehicle 2: 0 → 15
Vehicle 3: 0 → 15

=== Full Vehicle Routes ===
Vehicle 1: 0 → 8 → 11 → 1 → 0 (88<100)
Vehicle 2: 0 → 0 (0<100)
Vehicle 3: 0 → 0 (0<100)
Arc used by MRT line: y variables:
MRT used: 11 → 10
Customer assigment to PL: u variables:
2 11
3 8
4 11
5 10
6 11
7 11
Node is served by regular vehicle: g variables:
1
8
11
Customer assigment to Home delivery: gm variables:
1
Node total demands: ntd variables:
1 13 1
5 0 0
6 0 0
7 0 0
14 0 0
8 12 1
9 0 0
10 0 0
11 63 1
12 0 0
13 0 0
Customer's demand delivered to PL: l variables:
2
3
4
5
6
7
Lockers load <= capacity:
0 <= 71
12 <= 92
0 <= 73
6 <= 86
57 <= 79
0 <= 73
0 <= 82
